200
75 75
1 52 52
2 52 286
3 52 360
4 52 741
5 52 60
6 52 866
7 52 557
8 51 256
9 51 112
10 50 358
11 50 160
12 50 520
13 50 322
14 50 263
15 50 407
16 50 749
17 50 1000
18 50 428
19 50 548
20 50 438
21 49 898
22 49 911
23 49 147
24 49 330
25 48 922
26 48 876
27 48 334
28 48 613
29 48 34
30 48 849
31 48 86
32 48 302
33 48 819
34 47 903
35 47 450
36 47 610
37 47 996
38 47 89
39 47 199
40 46 723
41 46 106
42 46 741
43 46 790
44 46 447
45 46 986
46 46 468
47 45 22
48 45 115
49 45 751
50 45 910
51 45 817
52 44 387
53 44 936
54 44 481
55 44 738
56 44 243
57 43 950
58 43 291
59 42 579
60 42 442
61 42 221
62 41 599
63 41 51
64 41 894
65 40 577
66 40 287
67 40 993
68 40 62
69 40 856
70 39 436
71 39 205
72 38 523
73 38 853
74 37 664
75 37 623
76 36 304
77 36 591
78 36 615
79 35 171
80 35 447
81 35 910
82 35 799
83 35 351
84 34 25
85 34 219
86 34 869
87 33 195
88 33 10
89 33 732
90 33 880
91 33 199
92 32 42
93 32 819
94 32 524
95 32 754
96 31 543
97 31 818
98 31 236
99 30 426
100 30 876
101 30 853
102 30 578
103 30 511
104 30 396
105 29 728
106 29 480
107 29 378
108 29 603
109 29 653
110 29 148
111 29 130
112 29 516
113 28 364
114 28 90
115 27 608
116 27 289
117 27 580
118 26 688
119 26 986
120 26 410
121 26 894
122 25 400
123 25 155
124 25 87
125 25 340
126 25 241
127 25 521
128 24 896
129 24 493
130 24 248
131 23 164
132 23 8
133 23 311
134 22 811
135 22 833
136 22 206
137 22 474
138 21 153
139 21 698
140 21 910
141 21 123
142 21 861
143 21 704
144 20 816
145 20 697
146 20 967
147 19 559
148 19 198
149 19 385
150 19 136
151 19 399
152 19 910
153 18 71
154 18 754
155 18 69
156 18 934
157 17 649
158 17 290
159 17 77
160 17 803
161 17 852
162 17 438
163 17 967
164 17 64
165 17 177
166 16 872
167 16 306
168 16 898
169 16 265
170 16 640
171 15 809
172 15 993
173 15 485
174 14 219
175 14 396
176 14 718
177 14 873
178 14 870
179 13 803
180 13 444
181 13 346
182 13 869
183 13 938
184 12 187
185 12 589
186 11 437
187 11 335
188 11 381
189 10 234
190 10 745
191 10 638
192 9 61
193 9 17
194 9 963
195 9 328
196 8 891
197 8 427
198 7 386
199 7 26
200 7 201
